NAME : ejemplo_10
DIMENSION : 11
CAPACITY : 40
NODE_COORD_SECTION
1  50.0  50.0
2  20.0  25.0
3  30.0  70.0
4  75.0  80.0
5  85.0  30.0
6  15.0  60.0
7  60.0  15.0
8  90.0  65.0
9  25.0  85.0
10 70.0  45.0
11 40.0  20.0
DEMAND_SECTION
1  0
2  8
3  12
4  6
5  10
6  9
7  7
8  11
9  5
10 8
11 6
EOF
